results/res_prop_muc/res_Cimatti_mathsat_cores/QF_UF/NEQ031_size9.smt.smt2.out

real	0m33.249s
user	0m32.875s
sys	0m0.309s
