results/res_prop_muc/res_Cimatti_mathsat_cores/QF_UF/NEQ031_size9.smt.smt2.res
unsat
( _c0
  _c10120
  _c10121
  _c10124
  _c10125
  _c10126
  _c10127
  _c10128
  _c11130
  _c11131
  _c11132
  _c11133
  _c11134
  _c11135
  _c11136
  _c11137
  _c11138
  _c11140
  _c11141
  _c11142
  _c11143
  _c11144
  _c11145
  _c11146
  _c11147
  _c11148
  _c11150
  _c11151
  _c11152
  _c11153
  _c11154
  _c11155
  _c11156
  _c11157
  _c11158
  _c11160
  _c11161
  _c11162
  _c11163
  _c11164
  _c11165
  _c11166
  _c11167
  _c11168
  _c11170
  _c11171
  _c11172
  _c11173
  _c11174
  _c11175
  _c11176
  _c11177
  _c11178
  _c11180
  _c11181
  _c11182
  _c11183
  _c11184
  _c11185
  _c11186
  _c11187
  _c11188
  _c11190
  _c11191
  _c11192
  _c11193
  _c11194
  _c11195
  _c11196
  _c11197
  _c11198
  _c11200
  _c11201
  _c11202
  _c11203
  _c11204
  _c11205
  _c11206
  _c11207
  _c11208
  _c11336
  _c11338
  _c11340
  _c11341
  _c11342
  _c11343
  _c11344
  _c11345
  _c11346
  _c11347
  _c11348
  _c11349
  _c11350
  _c11351
  _c11352
  _c11353
  _c11354
  _c11355
  _c11356
  _c11357
  _c11358
  _c11359
  _c11360
  _c11361
  _c11362
  _c11363
  _c11364
  _c11365
  _c11366
  _c11367
  _c11368
  _c11369
  _c11370
  _c11371
  _c11372
  _c11373
  _c11374
  _c1342
  _c1343
  _c1344
  _c1345
  _c1346
  _c1347
  _c1348
  _c1349
  _c1350
  _c1351
  _c1353
  _c1354
  _c1355
  _c1356
  _c1359
  _c1360
  _c1361
  _c1363
  _c1364
  _c1365
  _c1366
  _c1367
  _c1368
  _c1369
  _c1370
  _c1371
  _c1372
  _c1373
  _c1374
  _c1375
  _c1376
  _c1377
  _c1379
  _c1380
  _c1381
  _c1382
  _c1383
  _c1384
  _c1385
  _c1386
  _c1387
  _c1388
  _c1389
  _c1390
  _c1391
  _c1392
  _c1393
  _c1394
  _c1395
  _c1396
  _c1397
  _c1398
  _c1399
  _c1400
  _c1401
  _c1402
  _c1403
  _c1404
  _c1405
  _c1406
  _c1407
  _c1408
  _c1409
  _c1410
  _c1411
  _c1412
  _c1413
  _c1414
  _c1415
  _c1416
  _c1417
  _c1418
  _c1420
  _c1421
  _c1422
  _c1423
  _c1424
  _c1425
  _c1426
  _c1427
  _c1428
  _c1429
  _c1430
  _c1431
  _c1432
  _c1433
  _c1434
  _c1435
  _c1436
  _c1437
  _c1438
  _c1439
  _c1440
  _c1441
  _c1442
  _c1443
  _c1444
  _c1445
  _c1446
  _c1447
  _c1448
  _c1449
  _c1451
  _c1452
  _c1453
  _c1454
  _c1455
  _c1456
  _c1457
  _c1458
  _c1459
  _c1460
  _c1462
  _c1463
  _c1464
  _c1465
  _c1466
  _c1467
  _c1468
  _c1469
  _c1470
  _c1471
  _c1472
  _c1473
  _c1474
  _c1476
  _c1477
  _c1478
  _c1479
  _c1480
  _c1481
  _c1482
  _c1483
  _c1484
  _c1485
  _c1486
  _c1495
  _c1496
  _c1497
  _c1498
  _c1499
  _c1500
  _c1501
  _c1503
  _c1504
  _c1505
  _c1506
  _c1507
  _c1508
  _c1511
  _c1512
  _c1513
  _c1515
  _c1517
  _c1518
  _c1519
  _c1520
  _c1521
  _c1522
  _c1524
  _c1526
  _c1527
  _c1528
  _c1529
  _c1531
  _c1532
  _c1533
  _c1534
  _c1535
  _c1536
  _c1538
  _c1539
  _c1540
  _c1541
  _c1542
  _c1543
  _c1545
  _c1546
  _c1547
  _c1548
  _c1549
  _c1550
  _c1559
  _c1567
  _c1568
  _c1569
  _c1570
  _c1571
  _c1572
  _c1575
  _c1576
  _c1577
  _c1579
  _c1582
  _c1583
  _c1584
  _c1585
  _c1586
  _c1589
  _c1590
  _c1591
  _c1592
  _c1593
  _c1596
  _c1597
  _c1598
  _c1599
  _c1600
  _c1603
  _c1604
  _c1605
  _c1606
  _c1607
  _c1610
  _c1611
  _c1612
  _c1613
  _c1614
  _c1618
  _c1620
  _c1625
  _c1639
  _c1640
  _c1641
  _c1642
  _c1643
  _c1647
  _c1648
  _c1649
  _c1650
  _c1654
  _c1655
  _c1656
  _c1657
  _c1661
  _c1662
  _c1663
  _c1664
  _c1665
  _c1666
  _c1667
  _c1668
  _c1669
  _c1670
  _c1671
  _c1675
  _c1676
  _c1677
  _c1678
  _c1711
  _c1712
  _c1713
  _c1714
  _c1719
  _c1721
  _c1726
  _c1727
  _c1728
  _c1733
  _c1734
  _c1735
  _c1740
  _c1741
  _c1742
  _c1783
  _c1784
  _c1785
  _c1791
  _c1792
  _c1797
  _c1798
  _c1799
  _c1805
  _c1806
  _c1855
  _c1856
  _c1863
  _c1870
  _c1927
  _c2856
  _c2857
  _c2858
  _c2859
  _c2860
  _c2861
  _c2862
  _c2863
  _c2864
  _c2958
  _c2959
  _c2960
  _c2961
  _c2966
  _c2967
  _c2968
  _c2969
  _c2970
  _c2971
  _c2972
  _c2973
  _c2976
  _c2977
  _c2978
  _c2979
  _c2980
  _c2981
  _c2982
  _c2983
  _c2984
  _c2986
  _c2987
  _c2988
  _c2989
  _c2990
  _c2992
  _c2993
  _c2996
  _c2997
  _c2998
  _c2999
  _c3000
  _c3001
  _c3002
  _c3003
  _c3004
  _c3006
  _c3007
  _c3008
  _c3009
  _c3010
  _c3011
  _c3012
  _c3014
  _c3016
  _c3017
  _c3018
  _c3019
  _c3020
  _c3021
  _c3022
  _c3023
  _c3024
  _c3026
  _c3027
  _c3028
  _c3029
  _c3030
  _c3031
  _c3032
  _c3033
  _c3034
  _c3855
  _c4603
  _c4604
  _c4605
  _c4606
  _c4607
  _c4608
  _c4609
  _c4610
  _c4611
  _c4613
  _c4617
  _c4618
  _c4619
  _c4623
  _c4624
  _c4626
  _c4627
  _c4630
  _c4631
  _c4633
  _c4634
  _c4639
  _c4640
  _c4641
  _c4649
  _c4650
  _c4651
  _c4657
  _c4659
  _c4666
  _c4667
  _c4675
  _c4694
  _c4695
  _c4696
  _c4697
  _c4698
  _c4699
  _c4700
  _c4701
  _c4702
  _c4704
  _c4705
  _c4706
  _c4707
  _c4708
  _c4709
  _c4710
  _c4711
  _c4712
  _c4714
  _c4715
  _c4716
  _c4717
  _c4718
  _c4719
  _c4720
  _c4721
  _c4722
  _c4724
  _c4725
  _c4726
  _c4727
  _c4728
  _c4729
  _c4730
  _c4731
  _c4732
  _c4734
  _c4735
  _c4736
  _c4737
  _c4738
  _c4739
  _c4740
  _c4741
  _c4742
  _c4744
  _c4745
  _c4746
  _c4747
  _c4748
  _c4749
  _c4750
  _c4751
  _c4752
  _c4754
  _c4755
  _c4756
  _c4757
  _c4758
  _c4759
  _c4760
  _c4761
  _c4762
  _c4764
  _c4765
  _c4766
  _c4767
  _c4768
  _c4769
  _c4770
  _c4771
  _c4772
  _c4775
  _c4776
  _c4777
  _c4778
  _c4779
  _c4780
  _c4781
  _c4782
  _c4783
  _c4785
  _c4786
  _c4787
  _c4788
  _c4789
  _c4790
  _c4791
  _c4792
  _c4793
  _c4795
  _c4796
  _c4797
  _c4798
  _c4799
  _c4800
  _c4801
  _c4802
  _c4803
  _c4805
  _c4806
  _c4807
  _c4808
  _c4809
  _c4810
  _c4811
  _c4812
  _c4813
  _c4815
  _c4816
  _c4817
  _c4818
  _c4819
  _c4820
  _c4821
  _c4822
  _c4823
  _c4825
  _c4826
  _c4827
  _c4828
  _c4829
  _c4830
  _c4831
  _c4832
  _c4833
  _c4835
  _c4836
  _c4837
  _c4838
  _c4839
  _c4840
  _c4841
  _c4842
  _c4843
  _c4845
  _c4846
  _c4847
  _c4848
  _c4849
  _c4850
  _c4851
  _c4852
  _c4853
  _c4856
  _c4857
  _c4858
  _c4859
  _c4860
  _c4861
  _c4862
  _c4863
  _c4864
  _c4866
  _c4867
  _c4868
  _c4869
  _c4870
  _c4871
  _c4872
  _c4873
  _c4874
  _c4876
  _c4877
  _c4878
  _c4879
  _c4880
  _c4881
  _c4882
  _c4883
  _c4884
  _c4886
  _c4887
  _c4888
  _c4889
  _c4890
  _c4891
  _c4892
  _c4893
  _c4894
  _c4896
  _c4897
  _c4898
  _c4899
  _c4900
  _c4901
  _c4902
  _c4903
  _c4904
  _c4906
  _c4907
  _c4908
  _c4909
  _c4910
  _c4911
  _c4912
  _c4913
  _c4914
  _c4916
  _c4917
  _c4918
  _c4919
  _c4920
  _c4921
  _c4922
  _c4923
  _c4924
  _c4926
  _c4927
  _c4928
  _c4929
  _c4930
  _c4931
  _c4932
  _c4933
  _c4934
  _c4937
  _c4938
  _c4939
  _c4940
  _c4941
  _c4942
  _c4943
  _c4944
  _c4945
  _c4947
  _c4948
  _c4949
  _c4950
  _c4951
  _c4952
  _c4953
  _c4954
  _c4955
  _c4957
  _c4958
  _c4959
  _c4960
  _c4961
  _c4962
  _c4963
  _c4964
  _c4965
  _c4967
  _c4968
  _c4969
  _c4970
  _c4971
  _c4972
  _c4973
  _c4974
  _c4975
  _c4977
  _c4978
  _c4979
  _c4980
  _c4981
  _c4982
  _c4983
  _c4984
  _c4985
  _c4987
  _c4988
  _c4989
  _c4990
  _c4991
  _c4992
  _c4993
  _c4994
  _c4995
  _c4997
  _c4998
  _c4999
  _c5000
  _c5001
  _c5002
  _c5003
  _c5004
  _c5005
  _c5007
  _c5008
  _c5009
  _c5010
  _c5011
  _c5012
  _c5013
  _c5014
  _c5015
  _c5018
  _c5019
  _c5020
  _c5021
  _c5022
  _c5023
  _c5024
  _c5025
  _c5026
  _c5028
  _c5029
  _c5030
  _c5031
  _c5032
  _c5033
  _c5034
  _c5035
  _c5036
  _c5038
  _c5039
  _c5040
  _c5041
  _c5042
  _c5043
  _c5044
  _c5045
  _c5046
  _c5048
  _c5049
  _c5050
  _c5051
  _c5052
  _c5053
  _c5054
  _c5055
  _c5056
  _c5058
  _c5059
  _c5060
  _c5061
  _c5062
  _c5063
  _c5064
  _c5065
  _c5066
  _c5068
  _c5069
  _c5070
  _c5071
  _c5072
  _c5073
  _c5074
  _c5075
  _c5076
  _c5078
  _c5079
  _c5080
  _c5081
  _c5082
  _c5083
  _c5084
  _c5085
  _c5086
  _c5088
  _c5089
  _c5090
  _c5091
  _c5092
  _c5093
  _c5094
  _c5095
  _c5096
  _c5099
  _c5100
  _c5101
  _c5102
  _c5103
  _c5104
  _c5105
  _c5106
  _c5107
  _c5109
  _c5110
  _c5111
  _c5112
  _c5113
  _c5114
  _c5115
  _c5116
  _c5117
  _c5119
  _c5120
  _c5121
  _c5122
  _c5123
  _c5124
  _c5125
  _c5126
  _c5127
  _c5129
  _c5130
  _c5131
  _c5132
  _c5133
  _c5134
  _c5135
  _c5136
  _c5137
  _c5139
  _c5140
  _c5141
  _c5142
  _c5143
  _c5144
  _c5145
  _c5146
  _c5147
  _c5149
  _c5150
  _c5151
  _c5152
  _c5153
  _c5154
  _c5155
  _c5156
  _c5157
  _c5159
  _c5160
  _c5161
  _c5162
  _c5163
  _c5164
  _c5165
  _c5166
  _c5167
  _c5169
  _c5170
  _c5171
  _c5172
  _c5173
  _c5174
  _c5175
  _c5176
  _c5177
  _c5180
  _c5181
  _c5182
  _c5183
  _c5184
  _c5185
  _c5186
  _c5187
  _c5188
  _c5190
  _c5191
  _c5192
  _c5193
  _c5194
  _c5195
  _c5196
  _c5197
  _c5198
  _c5200
  _c5201
  _c5202
  _c5203
  _c5204
  _c5206
  _c5207
  _c5208
  _c5210
  _c5211
  _c5212
  _c5213
  _c5214
  _c5215
  _c5216
  _c5217
  _c5218
  _c5220
  _c5221
  _c5222
  _c5223
  _c5224
  _c5225
  _c5226
  _c5227
  _c5228
  _c5230
  _c5231
  _c5232
  _c5233
  _c5234
  _c5235
  _c5236
  _c5237
  _c5238
  _c5240
  _c5241
  _c5242
  _c5243
  _c5244
  _c5245
  _c5246
  _c5247
  _c5248
  _c5250
  _c5251
  _c5252
  _c5253
  _c5254
  _c5255
  _c5256
  _c5257
  _c5258
  _c5261
  _c5262
  _c5263
  _c5264
  _c5265
  _c5266
  _c5267
  _c5268
  _c5269
  _c5271
  _c5272
  _c5273
  _c5274
  _c5275
  _c5276
  _c5277
  _c5278
  _c5279
  _c5281
  _c5282
  _c5283
  _c5284
  _c5285
  _c5286
  _c5287
  _c5288
  _c5289
  _c5291
  _c5292
  _c5293
  _c5294
  _c5295
  _c5296
  _c5297
  _c5298
  _c5299
  _c5301
  _c5302
  _c5303
  _c5304
  _c5305
  _c5306
  _c5307
  _c5308
  _c5309
  _c5311
  _c5312
  _c5313
  _c5314
  _c5315
  _c5316
  _c5317
  _c5318
  _c5319
  _c5321
  _c5322
  _c5323
  _c5324
  _c5325
  _c5326
  _c5327
  _c5328
  _c5329
  _c5331
  _c5332
  _c5333
  _c5334
  _c5335
  _c5336
  _c5337
  _c5338
  _c5339
  _c5342
  _c5343
  _c5344
  _c5345
  _c5346
  _c5347
  _c5348
  _c5349
  _c5350
  _c5352
  _c5353
  _c5354
  _c5355
  _c5356
  _c5357
  _c5358
  _c5359
  _c5360
  _c5362
  _c5363
  _c5364
  _c5365
  _c5366
  _c5367
  _c5368
  _c5369
  _c5370
  _c5372
  _c5373
  _c5374
  _c5375
  _c5376
  _c5377
  _c5378
  _c5379
  _c5380
  _c5382
  _c5383
  _c5384
  _c5385
  _c5386
  _c5387
  _c5388
  _c5389
  _c5390
  _c5392
  _c5393
  _c5394
  _c5395
  _c5396
  _c5397
  _c5398
  _c5399
  _c5400
  _c5402
  _c5403
  _c5404
  _c5405
  _c5406
  _c5407
  _c5408
  _c5409
  _c5410
  _c5412
  _c5413
  _c5414
  _c5415
  _c5416
  _c5417
  _c5418
  _c5419
  _c5420
  _c5421
  _c6971
  _c6972
  _c6973
  _c6974
  _c6975
  _c6976
  _c6977
  _c6978
  _c6979
  _c6981
  _c6982
  _c6983
  _c6984
  _c6985
  _c6986
  _c6987
  _c6988
  _c6989
  _c6994
  _c6995
  _c6996
  _c6998
  _c6999
  _c7002
  _c7003
  _c7006
  _c7007
  _c7008
  _c7009
  _c7013
  _c7015
  _c7016
  _c7018
  _c7019
  _c7021
  _c7022
  _c7023
  _c7024
  _c7025
  _c7026
  _c7027
  _c7028
  _c7029
  _c7033
  _c7034
  _c7035
  _c7036
  _c7037
  _c7038
  _c7039
  _c7042
  _c7043
  _c7044
  _c7045
  _c7046
  _c7048
  _c7049
  _c7825
  _c7826
  _c7827
  _c7828
  _c7829
  _c7830
  _c7831
  _c7832
  _c7833
  _c8014
  _c8024
  _c8034
  _c8044
  _c8054
  _c8064
  _c8074
  _c8084
  _c8094
  _c8105
  _c8106
  _c8107
  _c8108
  _c8109
  _c8110
  _c8111
  _c8112
  _c8113
  _c8115
  _c8116
  _c8117
  _c8118
  _c8119
  _c8120
  _c8121
  _c8122
  _c8123
  _c8125
  _c8126
  _c8127
  _c8128
  _c8129
  _c8130
  _c8131
  _c8132
  _c8133
  _c8135
  _c8136
  _c8137
  _c8138
  _c8139
  _c8140
  _c8141
  _c8142
  _c8143
  _c8145
  _c8146
  _c8147
  _c8148
  _c8149
  _c8150
  _c8151
  _c8152
  _c8153
  _c8155
  _c8156
  _c8157
  _c8158
  _c8159
  _c8160
  _c8161
  _c8162
  _c8163
  _c8165
  _c8166
  _c8167
  _c8168
  _c8169
  _c8170
  _c8171
  _c8172
  _c8173
  _c8175
  _c8176
  _c8177
  _c8178
  _c8179
  _c8180
  _c8181
  _c8182
  _c8183
  _c8381
  _c8384
  _c8400
  _c8401
  _c8402
  _c8403
  _c8404
  _c8405
  _c8406
  _c8407
  _c8408
  _c8410
  _c8411
  _c8412
  _c8413
  _c8414
  _c8415
  _c8416
  _c8419
  _c8420
  _c8421
  _c8424
  _c8428
  _c8429
  _c8430
  _c8431
  _c8432
  _c8437
  _c8439
  _c8440
  _c91
  _c92
  _c9292
  _c93
  _c9346
  _c9352
  _c9370
  _c94
  _c95
  _c96
  _c97
  _c98
  _c99 )
